c nIsolatedPIs 0
c maxPI 12
p cnf 189 532
c gate 13 3 7 0
3 -13 0
7 -13 0
-3 -7 13 0
c gate 14 4 8 0
4 -14 0
8 -14 0
-4 -8 14 0
c gate 15 -13 14 0
-13 -15 0
14 -15 0
13 -14 15 0
c gate 16 4 6 0
4 -16 0
6 -16 0
-4 -6 16 0
c gate 17 13 16 0
13 -17 0
16 -17 0
-13 -16 17 0
c gate 18 -14 17 0
-14 -18 0
17 -18 0
14 -17 18 0
c gate 19 -15 -18 0
-15 -19 0
-18 -19 0
15 18 19 0
c gate 20 3 8 0
3 -20 0
8 -20 0
-3 -8 20 0
c gate 21 3 6 0
3 -21 0
6 -21 0
-3 -6 21 0
c gate 22 4 7 0
4 -22 0
7 -22 0
-4 -7 22 0
c gate 23 -21 22 0
-21 -23 0
22 -23 0
21 -22 23 0
c gate 24 20 -23 0
20 -24 0
-23 -24 0
-20 23 24 0
c gate 25 -20 23 0
-20 -25 0
23 -25 0
20 -23 25 0
c gate 26 -24 -25 0
-24 -26 0
-25 -26 0
24 25 26 0
c gate 27 2 7 0
2 -27 0
7 -27 0
-2 -7 27 0
c gate 28 4 5 0
4 -28 0
5 -28 0
-4 -5 28 0
c gate 29 -21 -28 0
-21 -29 0
-28 -29 0
21 28 29 0
c gate 30 27 -29 0
27 -30 0
-29 -30 0
-27 29 30 0
c gate 31 -13 -16 0
-13 -31 0
-16 -31 0
13 16 31 0
c gate 32 -17 -31 0
-17 -32 0
-31 -32 0
17 31 32 0
c gate 33 30 32 0
30 -33 0
32 -33 0
-30 -32 33 0
c gate 34 2 8 0
2 -34 0
8 -34 0
-2 -8 34 0
c gate 35 -30 -32 0
-30 -35 0
-32 -35 0
30 32 35 0
c gate 36 -33 -35 0
-33 -36 0
-35 -36 0
33 35 36 0
c gate 37 34 36 0
34 -37 0
36 -37 0
-34 -36 37 0
c gate 38 -33 -37 0
-33 -38 0
-37 -38 0
33 37 38 0
c gate 39 26 38 0
26 -39 0
38 -39 0
-26 -38 39 0
c gate 40 1 7 0
1 -40 0
7 -40 0
-1 -7 40 0
c gate 41 2 6 0
2 -41 0
6 -41 0
-2 -6 41 0
c gate 42 3 5 0
3 -42 0
5 -42 0
-3 -5 42 0
c gate 43 -41 -42 0
-41 -43 0
-42 -43 0
41 42 43 0
c gate 44 40 -43 0
40 -44 0
-43 -44 0
-40 43 44 0
c gate 45 -27 29 0
-27 -45 0
29 -45 0
27 -29 45 0
c gate 46 -30 -45 0
-30 -46 0
-45 -46 0
30 45 46 0
c gate 47 44 46 0
44 -47 0
46 -47 0
-44 -46 47 0
c gate 48 1 8 0
1 -48 0
8 -48 0
-1 -8 48 0
c gate 49 -44 -46 0
-44 -49 0
-46 -49 0
44 46 49 0
c gate 50 -47 -49 0
-47 -50 0
-49 -50 0
47 49 50 0
c gate 51 48 50 0
48 -51 0
50 -51 0
-48 -50 51 0
c gate 52 -47 -51 0
-47 -52 0
-51 -52 0
47 51 52 0
c gate 53 -34 -36 0
-34 -53 0
-36 -53 0
34 36 53 0
c gate 54 -37 -53 0
-37 -54 0
-53 -54 0
37 53 54 0
c gate 55 -52 54 0
-52 -55 0
54 -55 0
52 -54 55 0
c gate 56 -26 -38 0
-26 -56 0
-38 -56 0
26 38 56 0
c gate 57 -55 -56 0
-55 -57 0
-56 -57 0
55 56 57 0
c gate 58 -39 -57 0
-39 -58 0
-57 -58 0
39 57 58 0
c gate 59 -19 58 0
-19 -59 0
58 -59 0
19 -58 59 0
c gate 60 21 28 0
21 -60 0
28 -60 0
-21 -28 60 0
c gate 61 -30 -60 0
-30 -61 0
-60 -61 0
30 60 61 0
c gate 62 32 -61 0
32 -62 0
-61 -62 0
-32 61 62 0
c gate 63 -32 61 0
-32 -63 0
61 -63 0
32 -61 63 0
c gate 64 -62 -63 0
-62 -64 0
-63 -64 0
62 63 64 0
c gate 65 34 64 0
34 -65 0
64 -65 0
-34 -64 65 0
c gate 66 -62 -65 0
-62 -66 0
-65 -66 0
62 65 66 0
c gate 67 -26 -66 0
-26 -67 0
-66 -67 0
26 66 67 0
c gate 68 41 42 0
41 -68 0
42 -68 0
-41 -42 68 0
c gate 69 -44 -68 0
-44 -69 0
-68 -69 0
44 68 69 0
c gate 70 27 60 0
27 -70 0
60 -70 0
-27 -60 70 0
c gate 71 -61 -70 0
-61 -71 0
-70 -71 0
61 70 71 0
c gate 72 -45 -71 0
-45 -72 0
-71 -72 0
45 71 72 0
c gate 73 -69 72 0
-69 -73 0
72 -73 0
69 -72 73 0
c gate 74 69 -72 0
69 -74 0
-72 -74 0
-69 72 74 0
c gate 75 -73 -74 0
-73 -75 0
-74 -75 0
73 74 75 0
c gate 76 48 75 0
48 -76 0
75 -76 0
-48 -75 76 0
c gate 77 -73 -76 0
-73 -77 0
-76 -77 0
73 76 77 0
c gate 78 -34 -64 0
-34 -78 0
-64 -78 0
34 64 78 0
c gate 79 -65 -78 0
-65 -79 0
-78 -79 0
65 78 79 0
c gate 80 -77 79 0
-77 -80 0
79 -80 0
77 -79 80 0
c gate 81 1 6 0
1 -81 0
6 -81 0
-1 -6 81 0
c gate 82 2 5 0
2 -82 0
5 -82 0
-2 -5 82 0
c gate 83 81 82 0
81 -83 0
82 -83 0
-81 -82 83 0
c gate 84 40 68 0
40 -84 0
68 -84 0
-40 -68 84 0
c gate 85 -40 43 0
-40 -85 0
43 -85 0
40 -43 85 0
c gate 86 -44 -85 0
-44 -86 0
-85 -86 0
44 85 86 0
c gate 87 -68 86 0
-68 -87 0
86 -87 0
68 -86 87 0
c gate 88 -84 -87 0
-84 -88 0
-87 -88 0
84 87 88 0
c gate 89 83 -88 0
83 -89 0
-88 -89 0
-83 88 89 0
c gate 90 -48 -75 0
-48 -90 0
-75 -90 0
48 75 90 0
c gate 91 -76 -90 0
-76 -91 0
-90 -91 0
76 90 91 0
c gate 92 89 91 0
89 -92 0
91 -92 0
-89 -91 92 0
c gate 93 77 -79 0
77 -93 0
-79 -93 0
-77 79 93 0
c gate 94 -80 -93 0
-80 -94 0
-93 -94 0
80 93 94 0
c gate 95 92 94 0
92 -95 0
94 -95 0
-92 -94 95 0
c gate 96 -80 -95 0
-80 -96 0
-95 -96 0
80 95 96 0
c gate 97 26 66 0
26 -97 0
66 -97 0
-26 -66 97 0
c gate 98 -67 -97 0
-67 -98 0
-97 -98 0
67 97 98 0
c gate 99 -96 98 0
-96 -99 0
98 -99 0
96 -98 99 0
c gate 100 -67 -99 0
-67 -100 0
-99 -100 0
67 99 100 0
c gate 101 -19 -100 0
-19 -101 0
-100 -101 0
19 100 101 0
c gate 102 -92 -94 0
-92 -102 0
-94 -102 0
92 94 102 0
c gate 103 -95 -102 0
-95 -103 0
-102 -103 0
95 102 103 0
c gate 104 -89 -91 0
-89 -104 0
-91 -104 0
89 91 104 0
c gate 105 -92 -104 0
-92 -105 0
-104 -105 0
92 104 105 0
c gate 106 12 105 0
12 -106 0
105 -106 0
-12 -105 106 0
c gate 107 -12 -105 0
-12 -107 0
-105 -107 0
12 105 107 0
c gate 108 -106 -107 0
-106 -108 0
-107 -108 0
106 107 108 0
c gate 109 -83 88 0
-83 -109 0
88 -109 0
83 -88 109 0
c gate 110 -89 -109 0
-89 -110 0
-109 -110 0
89 109 110 0
c gate 111 1 5 0
1 -111 0
5 -111 0
-1 -5 111 0
c gate 112 9 111 0
9 -112 0
111 -112 0
-9 -111 112 0
c gate 113 -10 -112 0
-10 -113 0
-112 -113 0
10 112 113 0
c gate 114 10 112 0
10 -114 0
112 -114 0
-10 -112 114 0
c gate 115 -81 -82 0
-81 -115 0
-82 -115 0
81 82 115 0
c gate 116 -114 115 0
-114 -116 0
115 -116 0
114 -115 116 0
c gate 117 -113 -116 0
-113 -117 0
-116 -117 0
113 116 117 0
c gate 118 83 -114 0
83 -118 0
-114 -118 0
-83 114 118 0
c gate 119 117 -118 0
117 -119 0
-118 -119 0
-117 118 119 0
c gate 120 11 119 0
11 -120 0
119 -120 0
-11 -119 120 0
c gate 121 -110 -120 0
-110 -121 0
-120 -121 0
110 120 121 0
c gate 122 -11 -119 0
-11 -122 0
-119 -122 0
11 119 122 0
c gate 123 -121 -122 0
-121 -123 0
-122 -123 0
121 122 123 0
c gate 124 108 123 0
108 -124 0
123 -124 0
-108 -123 124 0
c gate 125 -106 -124 0
-106 -125 0
-124 -125 0
106 124 125 0
c gate 126 103 -125 0
103 -126 0
-125 -126 0
-103 125 126 0
c gate 127 96 -98 0
96 -127 0
-98 -127 0
-96 98 127 0
c gate 128 -99 -127 0
-99 -128 0
-127 -128 0
99 127 128 0
c gate 129 126 128 0
126 -129 0
128 -129 0
-126 -128 129 0
c gate 130 19 100 0
19 -130 0
100 -130 0
-19 -100 130 0
c gate 131 -101 -130 0
-101 -131 0
-130 -131 0
101 130 131 0
c gate 132 129 131 0
129 -132 0
131 -132 0
-129 -131 132 0
c gate 133 -101 -132 0
-101 -133 0
-132 -133 0
101 132 133 0
c gate 134 59 -133 0
59 -134 0
-133 -134 0
-59 133 134 0
c gate 135 -59 133 0
-59 -135 0
133 -135 0
59 -133 135 0
c gate 136 -134 -135 0
-134 -136 0
-135 -136 0
134 135 136 0
c gate 137 52 -54 0
52 -137 0
-54 -137 0
-52 54 137 0
c gate 138 -55 -137 0
-55 -138 0
-137 -138 0
55 137 138 0
c gate 139 -48 -50 0
-48 -139 0
-50 -139 0
48 50 139 0
c gate 140 -51 -139 0
-51 -140 0
-139 -140 0
51 139 140 0
c gate 141 12 140 0
12 -141 0
140 -141 0
-12 -140 141 0
c gate 142 -12 -140 0
-12 -142 0
-140 -142 0
12 140 142 0
c gate 143 -141 -142 0
-141 -143 0
-142 -143 0
141 142 143 0
c gate 144 -11 -117 0
-11 -144 0
-117 -144 0
11 117 144 0
c gate 145 11 117 0
11 -145 0
117 -145 0
-11 -117 145 0
c gate 146 -86 -145 0
-86 -146 0
-145 -146 0
86 145 146 0
c gate 147 -144 -146 0
-144 -147 0
-146 -147 0
144 146 147 0
c gate 148 143 147 0
143 -148 0
147 -148 0
-143 -147 148 0
c gate 149 -141 -148 0
-141 -149 0
-148 -149 0
141 148 149 0
c gate 150 138 -149 0
138 -150 0
-149 -150 0
-138 149 150 0
c gate 151 -138 149 0
-138 -151 0
149 -151 0
138 -149 151 0
c gate 152 -150 -151 0
-150 -152 0
-151 -152 0
150 151 152 0
c gate 153 -103 125 0
-103 -153 0
125 -153 0
103 -125 153 0
c gate 154 -126 -153 0
-126 -154 0
-153 -154 0
126 153 154 0
c gate 155 -152 154 0
-152 -155 0
154 -155 0
152 -154 155 0
c gate 156 152 -154 0
152 -156 0
-154 -156 0
-152 154 156 0
c gate 157 -143 -147 0
-143 -157 0
-147 -157 0
143 147 157 0
c gate 158 -148 -157 0
-148 -158 0
-157 -158 0
148 157 158 0
c gate 159 -108 -123 0
-108 -159 0
-123 -159 0
108 123 159 0
c gate 160 -124 -159 0
-124 -160 0
-159 -160 0
124 159 160 0
c gate 161 -158 160 0
-158 -161 0
160 -161 0
158 -160 161 0
c gate 162 158 -160 0
158 -162 0
-160 -162 0
-158 160 162 0
c gate 163 -68 -83 0
-68 -163 0
-83 -163 0
68 83 163 0
c gate 164 -162 163 0
-162 -164 0
163 -164 0
162 -163 164 0
c gate 165 -161 164 0
-161 -165 0
164 -165 0
161 -164 165 0
c gate 166 -156 165 0
-156 -166 0
165 -166 0
156 -165 166 0
c gate 167 -155 166 0
-155 -167 0
166 -167 0
155 -166 167 0
c gate 168 -126 -128 0
-126 -168 0
-128 -168 0
126 128 168 0
c gate 169 -129 -168 0
-129 -169 0
-168 -169 0
129 168 169 0
c gate 170 -39 -56 0
-39 -170 0
-56 -170 0
39 56 170 0
c gate 171 -55 -150 0
-55 -171 0
-150 -171 0
55 150 171 0
c gate 172 -170 -171 0
-170 -172 0
-171 -172 0
170 171 172 0
c gate 173 170 171 0
170 -173 0
171 -173 0
-170 -171 173 0
c gate 174 -172 -173 0
-172 -174 0
-173 -174 0
172 173 174 0
c gate 175 169 174 0
169 -175 0
174 -175 0
-169 -174 175 0
c gate 176 -169 -174 0
-169 -176 0
-174 -176 0
169 174 176 0
c gate 177 -175 -176 0
-175 -177 0
-176 -177 0
175 176 177 0
c gate 178 167 177 0
167 -178 0
177 -178 0
-167 -177 178 0
c gate 179 19 -58 0
19 -179 0
-58 -179 0
-19 58 179 0
c gate 180 -59 -179 0
-59 -180 0
-179 -180 0
59 179 180 0
c gate 181 150 170 0
150 -181 0
170 -181 0
-150 -170 181 0
c gate 182 -180 -181 0
-180 -182 0
-181 -182 0
180 181 182 0
c gate 183 -129 -131 0
-129 -183 0
-131 -183 0
129 131 183 0
c gate 184 -132 -183 0
-132 -184 0
-183 -184 0
132 183 184 0
c gate 185 -182 -184 0
-182 -185 0
-184 -185 0
182 184 185 0
c gate 186 182 184 0
182 -186 0
184 -186 0
-182 -184 186 0
c gate 187 -185 -186 0
-185 -187 0
-186 -187 0
185 186 187 0
c gate 188 178 187 0
178 -188 0
187 -188 0
-178 -187 188 0
c gate 189 -136 188 0
-136 -189 0
188 -189 0
136 -188 189 0
c PO
-189 0
